(set-info :smt-lib-version 2.6)
(set-logic QF_FP)
(set-info :source |
Generated by: Chenqi Cui
Generated on: 2025-10-11
Generator: AutoSMTGen
Application: Generating SMT constraints with small solution spaces to make them challenging for SMT solvers
Target solver: Z3, CVC5, Bitwuzla
|)
(set-info :license "https://creativecommons.org/licenses/by/4.0/")
(set-info :category "industrial")
(set-info :status sat)
; benchmark generated from python API

(declare-fun x8 () (_ FloatingPoint 11 53))
(declare-fun x7 () (_ FloatingPoint 11 53))
(declare-fun x6 () (_ FloatingPoint 11 53))
(declare-fun x5 () (_ FloatingPoint 11 53))
(declare-fun x4 () (_ FloatingPoint 11 53))
(declare-fun x3 () (_ FloatingPoint 11 53))
(declare-fun x2 () (_ FloatingPoint 11 53))
(declare-fun x1 () (_ FloatingPoint 11 53))
(declare-fun x0 () (_ FloatingPoint 11 53))
(assert
 (let ((?x19 (fp.add roundNearestTiesToEven (fp.mul roundNearestTiesToEven (fp #b0 #b10000000100 #xe8fce03877916) x0) (fp.mul roundNearestTiesToEven (fp #b0 #b10000000010 #x90add647b04dc) x1))))
 (let ((?x22 (fp.add roundNearestTiesToEven ?x19 (fp.mul roundNearestTiesToEven (fp #b0 #b10000000101 #x380352db49083) x2))))
 (let ((?x25 (fp.add roundNearestTiesToEven ?x22 (fp.mul roundNearestTiesToEven (fp #b1 #b01111111111 #xded08d3298ebd) x3))))
 (let ((?x28 (fp.add roundNearestTiesToEven ?x25 (fp.mul roundNearestTiesToEven (fp #b0 #b10000000101 #x455ea28965f39) x4))))
 (let ((?x31 (fp.add roundNearestTiesToEven ?x28 (fp.mul roundNearestTiesToEven (fp #b0 #b10000000101 #x2d1837ccf9210) x5))))
 (let ((?x34 (fp.add roundNearestTiesToEven ?x31 (fp.mul roundNearestTiesToEven (fp #b0 #b10000000101 #x9d8a21689e319) x6))))
 (let ((?x37 (fp.add roundNearestTiesToEven ?x34 (fp.mul roundNearestTiesToEven (fp #b1 #b10000000100 #x602bd49401e72) x7))))
 (let ((?x40 (fp.add roundNearestTiesToEven ?x37 (fp.mul roundNearestTiesToEven (fp #b1 #b10000000010 #x2638425927a71) x8))))
 (fp.leq ?x40 (fp #b0 #b10000000011 #x85f4e2f612813)))))))))))
(assert
 (let ((?x64 (fp.add roundNearestTiesToEven (fp.mul roundNearestTiesToEven (fp #b1 #b10000000101 #x2b89786b4d9fc) x0) (fp.mul roundNearestTiesToEven (fp #b0 #b10000000101 #x85a03fe47707e) x1))))
 (let ((?x67 (fp.add roundNearestTiesToEven ?x64 (fp.mul roundNearestTiesToEven (fp #b0 #b10000000001 #xdd153996372c5) x2))))
 (let ((?x70 (fp.add roundNearestTiesToEven ?x67 (fp.mul roundNearestTiesToEven (fp #b1 #b10000000011 #xebbc327774a60) x3))))
 (let ((?x73 (fp.add roundNearestTiesToEven ?x70 (fp.mul roundNearestTiesToEven (fp #b1 #b10000000101 #x5449333834e1a) x4))))
 (let ((?x76 (fp.add roundNearestTiesToEven ?x73 (fp.mul roundNearestTiesToEven (fp #b0 #b10000000101 #x0b6adf9e02551) x5))))
 (let ((?x79 (fp.add roundNearestTiesToEven ?x76 (fp.mul roundNearestTiesToEven (fp #b0 #b10000000101 #x5c7ad518cf5a8) x6))))
 (let ((?x82 (fp.add roundNearestTiesToEven ?x79 (fp.mul roundNearestTiesToEven (fp #b0 #b10000000011 #x8e5fd7f26363c) x7))))
 (let ((?x85 (fp.add roundNearestTiesToEven ?x82 (fp.mul roundNearestTiesToEven (fp #b0 #b10000000101 #x52863266b6605) x8))))
 (fp.leq ?x85 (fp #b0 #b10000000011 #x06f97627693a2)))))))))))
(assert
 (let ((?x92 (fp.add roundNearestTiesToEven (fp.mul roundNearestTiesToEven (fp #b1 #b10000000100 #xf7dc7b1301f29) x0) (fp.mul roundNearestTiesToEven (fp #b0 #b10000000100 #x849cd05acf1b2) x1))))
 (let ((?x95 (fp.add roundNearestTiesToEven ?x92 (fp.mul roundNearestTiesToEven (fp #b0 #b10000000101 #x3d623490730e1) x2))))
 (let ((?x98 (fp.add roundNearestTiesToEven ?x95 (fp.mul roundNearestTiesToEven (fp #b1 #b10000000101 #x12e7e4ac39a02) x3))))
 (let ((?x101 (fp.add roundNearestTiesToEven ?x98 (fp.mul roundNearestTiesToEven (fp #b0 #b10000000101 #x4d96eb38802fd) x4))))
 (let ((?x104 (fp.add roundNearestTiesToEven ?x101 (fp.mul roundNearestTiesToEven (fp #b1 #b10000000010 #xe2d613a1672ff) x5))))
 (let ((?x107 (fp.add roundNearestTiesToEven ?x104 (fp.mul roundNearestTiesToEven (fp #b1 #b10000000010 #x5b3a703df9880) x6))))
 (let ((?x110 (fp.add roundNearestTiesToEven ?x107 (fp.mul roundNearestTiesToEven (fp #b0 #b10000000100 #x3d8005faa2bad) x7))))
 (let ((?x113 (fp.add roundNearestTiesToEven ?x110 (fp.mul roundNearestTiesToEven (fp #b0 #b10000000101 #x421189d94a2ee) x8))))
 (fp.leq ?x113 (fp #b1 #b10000000100 #xc8b333962babf)))))))))))
(assert
 (let ((?x120 (fp.add roundNearestTiesToEven (fp.mul roundNearestTiesToEven (fp #b1 #b10000000010 #x69bf5918fc5ad) x0) (fp.mul roundNearestTiesToEven (fp #b1 #b10000000101 #xa16b2534e072b) x1))))
 (let ((?x123 (fp.add roundNearestTiesToEven ?x120 (fp.mul roundNearestTiesToEven (fp #b0 #b10000000100 #xa3c49f4fd1afe) x2))))
 (let ((?x126 (fp.add roundNearestTiesToEven ?x123 (fp.mul roundNearestTiesToEven (fp #b0 #b10000000101 #x650c6d40cdbb1) x3))))
 (let ((?x129 (fp.add roundNearestTiesToEven ?x126 (fp.mul roundNearestTiesToEven (fp #b0 #b10000000011 #x24bab2e4a15b1) x4))))
 (let ((?x132 (fp.add roundNearestTiesToEven ?x129 (fp.mul roundNearestTiesToEven (fp #b1 #b10000000101 #x944c7104b2e54) x5))))
 (let ((?x135 (fp.add roundNearestTiesToEven ?x132 (fp.mul roundNearestTiesToEven (fp #b1 #b10000000011 #x801a5658acc24) x6))))
 (let ((?x138 (fp.add roundNearestTiesToEven ?x135 (fp.mul roundNearestTiesToEven (fp #b0 #b01111111111 #xf5bb6806e0f69) x7))))
 (let ((?x141 (fp.add roundNearestTiesToEven ?x138 (fp.mul roundNearestTiesToEven (fp #b1 #b10000000011 #xf37b60fc6991f) x8))))
 (fp.leq ?x141 (fp #b0 #b10000000100 #xf0c1ef04accbd)))))))))))
(assert
 (let ((?x148 (fp.add roundNearestTiesToEven (fp.mul roundNearestTiesToEven (fp #b0 #b10000000100 #x85c07e378b134) x0) (fp.mul roundNearestTiesToEven (fp #b1 #b10000000101 #x7e34cadaa50eb) x1))))
 (let ((?x151 (fp.add roundNearestTiesToEven ?x148 (fp.mul roundNearestTiesToEven (fp #b0 #b10000000101 #x8529bca9d8dc9) x2))))
 (let ((?x154 (fp.add roundNearestTiesToEven ?x151 (fp.mul roundNearestTiesToEven (fp #b0 #b10000000101 #x72301ae00467c) x3))))
 (let ((?x157 (fp.add roundNearestTiesToEven ?x154 (fp.mul roundNearestTiesToEven (fp #b1 #b10000000101 #x94ca33deacad6) x4))))
 (let ((?x160 (fp.add roundNearestTiesToEven ?x157 (fp.mul roundNearestTiesToEven (fp #b0 #b10000000101 #x7992772bc7879) x5))))
 (let ((?x163 (fp.add roundNearestTiesToEven ?x160 (fp.mul roundNearestTiesToEven (fp #b0 #b10000000100 #x0402758250eac) x6))))
 (let ((?x166 (fp.add roundNearestTiesToEven ?x163 (fp.mul roundNearestTiesToEven (fp #b0 #b10000000100 #x794aea701bb1c) x7))))
 (let ((?x169 (fp.add roundNearestTiesToEven ?x166 (fp.mul roundNearestTiesToEven (fp #b1 #b10000000100 #x28f4ebdd87f7c) x8))))
 (fp.leq ?x169 (fp #b1 #b10000000000 #xcf010d341ec69)))))))))))
(assert
 (let ((?x176 (fp.add roundNearestTiesToEven (fp.mul roundNearestTiesToEven (fp #b1 #b10000000000 #xf9784aa886db6) x0) (fp.mul roundNearestTiesToEven (fp #b0 #b10000000100 #xa9f08c9293516) x1))))
 (let ((?x179 (fp.add roundNearestTiesToEven ?x176 (fp.mul roundNearestTiesToEven (fp #b0 #b10000000101 #x824a5f9060da2) x2))))
 (let ((?x182 (fp.add roundNearestTiesToEven ?x179 (fp.mul roundNearestTiesToEven (fp #b1 #b10000000011 #x70ed78ee6245e) x3))))
 (let ((?x185 (fp.add roundNearestTiesToEven ?x182 (fp.mul roundNearestTiesToEven (fp #b1 #b10000000100 #x065308e20e60b) x4))))
 (let ((?x188 (fp.add roundNearestTiesToEven ?x185 (fp.mul roundNearestTiesToEven (fp #b1 #b10000000101 #x8f86c23971b55) x5))))
 (let ((?x191 (fp.add roundNearestTiesToEven ?x188 (fp.mul roundNearestTiesToEven (fp #b0 #b10000000001 #xaeff79596400b) x6))))
 (let ((?x194 (fp.add roundNearestTiesToEven ?x191 (fp.mul roundNearestTiesToEven (fp #b1 #b10000000100 #x8b67983e19b27) x7))))
 (let ((?x197 (fp.add roundNearestTiesToEven ?x194 (fp.mul roundNearestTiesToEven (fp #b0 #b10000000100 #x1a86ae5940535) x8))))
 (fp.leq ?x197 (fp #b0 #b10000000100 #x248b37c1f950b)))))))))))
(assert
 (let ((?x204 (fp.add roundNearestTiesToEven (fp.mul roundNearestTiesToEven (fp #b0 #b10000000100 #x896bf47b1c54a) x0) (fp.mul roundNearestTiesToEven (fp #b0 #b10000000100 #x381d5335debb2) x1))))
 (let ((?x207 (fp.add roundNearestTiesToEven ?x204 (fp.mul roundNearestTiesToEven (fp #b1 #b10000000101 #x6be130475bbab) x2))))
 (let ((?x210 (fp.add roundNearestTiesToEven ?x207 (fp.mul roundNearestTiesToEven (fp #b1 #b10000000100 #x23471db1cd6b8) x3))))
 (let ((?x213 (fp.add roundNearestTiesToEven ?x210 (fp.mul roundNearestTiesToEven (fp #b0 #b10000000100 #x1e31c0f8f5e4d) x4))))
 (let ((?x216 (fp.add roundNearestTiesToEven ?x213 (fp.mul roundNearestTiesToEven (fp #b0 #b10000000101 #x4080bedf28c5d) x5))))
 (let ((?x219 (fp.add roundNearestTiesToEven ?x216 (fp.mul roundNearestTiesToEven (fp #b1 #b10000000100 #x21c19ea01eb37) x6))))
 (let ((?x222 (fp.add roundNearestTiesToEven ?x219 (fp.mul roundNearestTiesToEven (fp #b0 #b10000000010 #xe61a1ebd45ec0) x7))))
 (let ((?x225 (fp.add roundNearestTiesToEven ?x222 (fp.mul roundNearestTiesToEven (fp #b1 #b10000000101 #x717fc2cca979d) x8))))
 (fp.leq ?x225 (fp #b1 #b10000000100 #xe1f4aa998bac9)))))))))))
(assert
 (let ((?x232 (fp.add roundNearestTiesToEven (fp.mul roundNearestTiesToEven (fp #b0 #b10000000100 #xf8d36df7ce19a) x0) (fp.mul roundNearestTiesToEven (fp #b1 #b10000000100 #x57865f0740759) x1))))
 (let ((?x235 (fp.add roundNearestTiesToEven ?x232 (fp.mul roundNearestTiesToEven (fp #b1 #b10000000101 #x07311fad48409) x2))))
 (let ((?x238 (fp.add roundNearestTiesToEven ?x235 (fp.mul roundNearestTiesToEven (fp #b1 #b10000000011 #xfac0fca2036a1) x3))))
 (let ((?x241 (fp.add roundNearestTiesToEven ?x238 (fp.mul roundNearestTiesToEven (fp #b1 #b10000000011 #xd4fb62c205d46) x4))))
 (let ((?x244 (fp.add roundNearestTiesToEven ?x241 (fp.mul roundNearestTiesToEven (fp #b0 #b01111111111 #x9746be353d6d5) x5))))
 (let ((?x247 (fp.add roundNearestTiesToEven ?x244 (fp.mul roundNearestTiesToEven (fp #b0 #b10000000010 #xa0d366dc97338) x6))))
 (let ((?x250 (fp.add roundNearestTiesToEven ?x247 (fp.mul roundNearestTiesToEven (fp #b0 #b10000000011 #x4d8fba3394984) x7))))
 (let ((?x253 (fp.add roundNearestTiesToEven ?x250 (fp.mul roundNearestTiesToEven (fp #b1 #b10000000011 #x8002674d0cbee) x8))))
 (fp.leq ?x253 (fp #b0 #b10000000101 #x3898e84700ec4)))))))))))
(assert
 (let ((?x260 (fp.add roundNearestTiesToEven (fp.mul roundNearestTiesToEven (fp #b1 #b10000000100 #x5a4d555dc6d36) x0) (fp.mul roundNearestTiesToEven (fp #b0 #b10000000101 #x217485e352278) x1))))
 (let ((?x263 (fp.add roundNearestTiesToEven ?x260 (fp.mul roundNearestTiesToEven (fp #b0 #b10000000100 #x2f02b58ef7f46) x2))))
 (let ((?x266 (fp.add roundNearestTiesToEven ?x263 (fp.mul roundNearestTiesToEven (fp #b1 #b10000000101 #x7df0399c1bb3f) x3))))
 (let ((?x269 (fp.add roundNearestTiesToEven ?x266 (fp.mul roundNearestTiesToEven (fp #b0 #b10000000011 #x24fa5579ff545) x4))))
 (let ((?x272 (fp.add roundNearestTiesToEven ?x269 (fp.mul roundNearestTiesToEven (fp #b1 #b10000000100 #xb94de36bc139e) x5))))
 (let ((?x275 (fp.add roundNearestTiesToEven ?x272 (fp.mul roundNearestTiesToEven (fp #b1 #b10000000001 #xf62e6c3249a2b) x6))))
 (let ((?x278 (fp.add roundNearestTiesToEven ?x275 (fp.mul roundNearestTiesToEven (fp #b0 #b10000000011 #x6c6add066e2bd) x7))))
 (let ((?x281 (fp.add roundNearestTiesToEven ?x278 (fp.mul roundNearestTiesToEven (fp #b0 #b10000000101 #x6c9cdc345df56) x8))))
 (fp.leq ?x281 (fp #b1 #b10000000100 #xde8b58f367054)))))))))))
(assert
 (let ((?x288 (fp.add roundNearestTiesToEven (fp.mul roundNearestTiesToEven (fp #b0 #b10000000001 #x9e8c30e66743a) x0) (fp.mul roundNearestTiesToEven (fp #b0 #b10000000100 #x6b2cfd44b6b6d) x1))))
 (let ((?x291 (fp.add roundNearestTiesToEven ?x288 (fp.mul roundNearestTiesToEven (fp #b1 #b10000000101 #x0fcfd92798332) x2))))
 (let ((?x294 (fp.add roundNearestTiesToEven ?x291 (fp.mul roundNearestTiesToEven (fp #b0 #b10000000010 #xa68677ce0af35) x3))))
 (let ((?x297 (fp.add roundNearestTiesToEven ?x294 (fp.mul roundNearestTiesToEven (fp #b0 #b10000000010 #x775e4ad339b58) x4))))
 (let ((?x300 (fp.add roundNearestTiesToEven ?x297 (fp.mul roundNearestTiesToEven (fp #b0 #b10000000101 #x0cbad810c603c) x5))))
 (let ((?x303 (fp.add roundNearestTiesToEven ?x300 (fp.mul roundNearestTiesToEven (fp #b1 #b10000000100 #xd37b9fca82f4d) x6))))
 (let ((?x306 (fp.add roundNearestTiesToEven ?x303 (fp.mul roundNearestTiesToEven (fp #b1 #b10000000011 #xa1062a686dc62) x7))))
 (let ((?x309 (fp.add roundNearestTiesToEven ?x306 (fp.mul roundNearestTiesToEven (fp #b1 #b10000000010 #xc87ef6801b2a5) x8))))
 (fp.leq ?x309 (fp #b1 #b10000000101 #x3e903c26f5e28)))))))))))
(assert
 (let ((?x316 (fp.add roundNearestTiesToEven (fp.mul roundNearestTiesToEven (fp #b1 #b10000000100 #x01804fe7251f4) x0) (fp.mul roundNearestTiesToEven (fp #b1 #b10000000100 #x46d4044062175) x1))))
 (let ((?x319 (fp.add roundNearestTiesToEven ?x316 (fp.mul roundNearestTiesToEven (fp #b1 #b10000000100 #x854fc5f4b259e) x2))))
 (let ((?x322 (fp.add roundNearestTiesToEven ?x319 (fp.mul roundNearestTiesToEven (fp #b1 #b10000000101 #x2c9240aca5506) x3))))
 (let ((?x325 (fp.add roundNearestTiesToEven ?x322 (fp.mul roundNearestTiesToEven (fp #b1 #b10000000100 #x83c35ea956588) x4))))
 (let ((?x328 (fp.add roundNearestTiesToEven ?x325 (fp.mul roundNearestTiesToEven (fp #b0 #b01111111111 #x57ebf3974b81a) x5))))
 (let ((?x331 (fp.add roundNearestTiesToEven ?x328 (fp.mul roundNearestTiesToEven (fp #b1 #b10000000011 #x358778c82f02d) x6))))
 (let ((?x334 (fp.add roundNearestTiesToEven ?x331 (fp.mul roundNearestTiesToEven (fp #b0 #b10000000100 #xe0dbfe61f20b4) x7))))
 (let ((?x337 (fp.add roundNearestTiesToEven ?x334 (fp.mul roundNearestTiesToEven (fp #b0 #b10000000101 #x1c45721c3afc9) x8))))
 (fp.leq ?x337 (fp #b0 #b10000000101 #x77bc2ef5f3651)))))))))))
(assert
 (let ((?x344 (fp.add roundNearestTiesToEven (fp.mul roundNearestTiesToEven (fp #b1 #b10000000101 #x613238c279019) x0) (fp.mul roundNearestTiesToEven (fp #b1 #b10000000100 #x327819961d7c6) x1))))
(let ((?x347 (fp.add roundNearestTiesToEven ?x344 (fp.mul roundNearestTiesToEven (fp #b0 #b10000000000 #x1d8287dd758f4) x2))))
(let ((?x350 (fp.add roundNearestTiesToEven ?x347 (fp.mul roundNearestTiesToEven (fp #b1 #b10000000011 #x21e3fe4dd1bb5) x3))))
(let ((?x353 (fp.add roundNearestTiesToEven ?x350 (fp.mul roundNearestTiesToEven (fp #b0 #b10000000100 #x5fbaf367552b3) x4))))
(let ((?x356 (fp.add roundNearestTiesToEven ?x353 (fp.mul roundNearestTiesToEven (fp #b0 #b10000000010 #xdee0a9521d2af) x5))))
(let ((?x359 (fp.add roundNearestTiesToEven ?x356 (fp.mul roundNearestTiesToEven (fp #b0 #b01111111110 #x7c8d9bb685e67) x6))))
(let ((?x362 (fp.add roundNearestTiesToEven ?x359 (fp.mul roundNearestTiesToEven (fp #b1 #b10000000101 #x7af79fae4d331) x7))))
(let ((?x365 (fp.add roundNearestTiesToEven ?x362 (fp.mul roundNearestTiesToEven (fp #b0 #b10000000100 #x4f10e70ddab67) x8))))
(fp.leq ?x365 (fp #b0 #b10000000100 #x17d1d5895c6e5)))))))))))
(check-sat)
(exit)
